examples/dynamic/debug12/InVarSynth_OrderDependentEquality.c_Iteration2_0.smt2
(set-info :smt-lib-version 2.6)
(set-logic QF_NRA)

(set-info :category "industrial")
(set-info :status sat)
(declare-fun liipp_0_c () Real)
(declare-fun |liipp_0__ULTIMATE.start_main_#t~nondet0| () Real)
(declare-fun |liipp_0__ULTIMATE.start_main_#res| () Real)
(declare-fun |liipp_0__ULTIMATE.start_main_#t~post3| () Real)
(declare-fun |liipp_0__ULTIMATE.start_main_#t~post2| () Real)
(declare-fun |liipp_0__ULTIMATE.start_main_#t~post1| () Real)
(declare-fun liipp_0__ULTIMATE.start_main_~z~2 () Real)
(declare-fun liipp_0__ULTIMATE.start_main_~y~2 () Real)
(declare-fun liipp_0__ULTIMATE.start_main_~x~2 () Real)
(declare-fun |liipp_0__ULTIMATE.start_main_#t~post4| () Real)
(declare-fun liipp_1_c () Real)
(declare-fun |liipp_1__ULTIMATE.start_main_#t~nondet0| () Real)
(declare-fun |liipp_1__ULTIMATE.start_main_#res| () Real)
(declare-fun |liipp_1__ULTIMATE.start_main_#t~post3| () Real)
(declare-fun |liipp_1__ULTIMATE.start_main_#t~post2| () Real)
(declare-fun |liipp_1__ULTIMATE.start_main_#t~post1| () Real)
(declare-fun liipp_1__ULTIMATE.start_main_~z~2 () Real)
(declare-fun liipp_1__ULTIMATE.start_main_~y~2 () Real)
(declare-fun liipp_1__ULTIMATE.start_main_~x~2 () Real)
(declare-fun |liipp_1__ULTIMATE.start_main_#t~post4| () Real)
(declare-fun liipp_2_c () Real)
(declare-fun |liipp_2__ULTIMATE.start_main_#t~nondet0| () Real)
(declare-fun |liipp_2__ULTIMATE.start_main_#res| () Real)
(declare-fun |liipp_2__ULTIMATE.start_main_#t~post3| () Real)
(declare-fun |liipp_2__ULTIMATE.start_main_#t~post2| () Real)
(declare-fun |liipp_2__ULTIMATE.start_main_#t~post1| () Real)
(declare-fun liipp_2__ULTIMATE.start_main_~z~2 () Real)
(declare-fun liipp_2__ULTIMATE.start_main_~y~2 () Real)
(declare-fun liipp_2__ULTIMATE.start_main_~x~2 () Real)
(declare-fun |liipp_2__ULTIMATE.start_main_#t~post4| () Real)
(declare-fun liipp_3_c () Real)
(declare-fun |liipp_3__ULTIMATE.start_main_#t~nondet0| () Real)
(declare-fun |liipp_3__ULTIMATE.start_main_#res| () Real)
(declare-fun |liipp_3__ULTIMATE.start_main_#t~post3| () Real)
(declare-fun |liipp_3__ULTIMATE.start_main_#t~post2| () Real)
(declare-fun |liipp_3__ULTIMATE.start_main_#t~post1| () Real)
(declare-fun liipp_3__ULTIMATE.start_main_~z~2 () Real)
(declare-fun liipp_3__ULTIMATE.start_main_~y~2 () Real)
(declare-fun liipp_3__ULTIMATE.start_main_~x~2 () Real)
(declare-fun |liipp_3__ULTIMATE.start_main_#t~post4| () Real)
(declare-fun liipp_4_c () Real)
(declare-fun |liipp_4__ULTIMATE.start_main_#t~nondet0| () Real)
(declare-fun |liipp_4__ULTIMATE.start_main_#res| () Real)
(declare-fun |liipp_4__ULTIMATE.start_main_#t~post3| () Real)
(declare-fun |liipp_4__ULTIMATE.start_main_#t~post2| () Real)
(declare-fun |liipp_4__ULTIMATE.start_main_#t~post1| () Real)
(declare-fun liipp_4__ULTIMATE.start_main_~z~2 () Real)
(declare-fun liipp_4__ULTIMATE.start_main_~y~2 () Real)
(declare-fun liipp_4__ULTIMATE.start_main_~x~2 () Real)
(declare-fun |liipp_4__ULTIMATE.start_main_#t~post4| () Real)
(declare-fun liipp_5_c () Real)
(declare-fun |liipp_5__ULTIMATE.start_main_#t~nondet0| () Real)
(declare-fun |liipp_5__ULTIMATE.start_main_#res| () Real)
(declare-fun |liipp_5__ULTIMATE.start_main_#t~post3| () Real)
(declare-fun |liipp_5__ULTIMATE.start_main_#t~post2| () Real)
(declare-fun |liipp_5__ULTIMATE.start_main_#t~post1| () Real)
(declare-fun liipp_5__ULTIMATE.start_main_~z~2 () Real)
(declare-fun liipp_5__ULTIMATE.start_main_~y~2 () Real)
(declare-fun liipp_5__ULTIMATE.start_main_~x~2 () Real)
(declare-fun |liipp_5__ULTIMATE.start_main_#t~post4| () Real)
(declare-fun liipp_6_replace_0 () Real)
(declare-fun liipp_6_replace_1 () Real)
(declare-fun liipp_6_replace_2 () Real)
(declare-fun liipp_6_replace_3 () Real)
(declare-fun liipp_6_replace_4 () Real)
(declare-fun liipp_6_replace_5 () Real)
(declare-fun liipp_6_replace_6 () Real)
(declare-fun liipp_6_replace_7 () Real)
(declare-fun liipp_6_replace_8 () Real)
(declare-fun liipp_7_replace_0 () Real)
(declare-fun liipp_7_replace_1 () Real)
(declare-fun liipp_7_replace_2 () Real)
(declare-fun liipp_7_replace_3 () Real)
(declare-fun liipp_7_replace_4 () Real)
(declare-fun liipp_7_replace_5 () Real)
(declare-fun liipp_7_replace_6 () Real)
(declare-fun liipp_7_replace_7 () Real)
(declare-fun liipp_7_replace_8 () Real)
(declare-fun motzkin_6315_0 () Real)
(declare-fun motzkin_6315_1 () Real)
(declare-fun motzkin_6315_2 () Real)
(declare-fun motzkin_6315_3 () Real)
(declare-fun motzkin_6315_4 () Real)
(declare-fun motzkin_6315_5 () Real)
(declare-fun motzkin_6315_6 () Real)
(declare-fun motzkin_6316_0 () Real)
(declare-fun motzkin_6316_1 () Real)
(declare-fun motzkin_6316_2 () Real)
(declare-fun motzkin_6316_3 () Real)
(declare-fun motzkin_6316_4 () Real)
(declare-fun motzkin_6316_5 () Real)
(declare-fun motzkin_6316_6 () Real)
(assert (and (>= motzkin_6315_0 0.0) (>= motzkin_6315_1 0.0) (>= motzkin_6315_2 0.0) (>= motzkin_6315_3 0.0) (>= motzkin_6315_4 0.0) (>= motzkin_6315_5 0.0) (>= motzkin_6315_6 0.0) (= (+ motzkin_6315_0 (* motzkin_6315_1 (- 1.0)) (* motzkin_6315_6 (+ (* (- 1.0) liipp_2__ULTIMATE.start_main_~z~2) 0.0))) 0.0) (= (+ (* motzkin_6315_2 (- 1.0)) motzkin_6315_3 (* motzkin_6315_6 (+ (* (- 1.0) liipp_2__ULTIMATE.start_main_~y~2) 0.0))) 0.0) (= (+ (* motzkin_6315_4 (- 1.0)) motzkin_6315_5 (* motzkin_6315_6 (+ (* (- 1.0) liipp_2__ULTIMATE.start_main_~x~2) 0.0))) 0.0) (= (* motzkin_6315_6 (+ (* (- 1.0) |liipp_2__ULTIMATE.start_main_#t~nondet0|) 0.0)) 0.0) (= (* motzkin_6315_6 (+ (* (- 1.0) |liipp_2__ULTIMATE.start_main_#res|) 0.0)) 0.0) (= (* motzkin_6315_6 (+ (* (- 1.0) |liipp_2__ULTIMATE.start_main_#t~post3|) 0.0)) 0.0) (= (* motzkin_6315_6 (+ (* (- 1.0) |liipp_2__ULTIMATE.start_main_#t~post2|) 0.0)) 0.0) (= (* motzkin_6315_6 (+ (* (- 1.0) |liipp_2__ULTIMATE.start_main_#t~post1|) 0.0)) 0.0) (= (* motzkin_6315_6 (+ (* (- 1.0) |liipp_2__ULTIMATE.start_main_#t~post4|) 0.0)) 0.0) (<= (* motzkin_6315_6 (+ (* (- 1.0) liipp_2_c) 0.0)) 0.0) (or (< (* motzkin_6315_6 (+ (* (- 1.0) liipp_2_c) 0.0)) 0.0) (> 0.0 0.0)) (>= motzkin_6316_0 0.0) (>= motzkin_6316_1 0.0) (>= motzkin_6316_2 0.0) (>= motzkin_6316_3 0.0) (>= motzkin_6316_4 0.0) (>= motzkin_6316_5 0.0) (>= motzkin_6316_6 0.0) (= (+ motzkin_6316_0 (* motzkin_6316_1 (- 1.0)) (* motzkin_6316_6 (+ (* (- 1.0) liipp_3__ULTIMATE.start_main_~z~2) 0.0))) 0.0) (= (+ (* motzkin_6316_2 (- 1.0)) motzkin_6316_3 (* motzkin_6316_6 (+ (* (- 1.0) liipp_3__ULTIMATE.start_main_~y~2) 0.0))) 0.0) (= (+ (* motzkin_6316_4 (- 1.0)) motzkin_6316_5 (* motzkin_6316_6 (+ (* (- 1.0) liipp_3__ULTIMATE.start_main_~x~2) 0.0))) 0.0) (= (* motzkin_6316_6 (+ (* (- 1.0) |liipp_3__ULTIMATE.start_main_#t~nondet0|) 0.0)) 0.0) (= (* motzkin_6316_6 (+ (* (- 1.0) |liipp_3__ULTIMATE.start_main_#res|) 0.0)) 0.0) (= (* motzkin_6316_6 (+ (* (- 1.0) |liipp_3__ULTIMATE.start_main_#t~post3|) 0.0)) 0.0) (= (* motzkin_6316_6 (+ (* (- 1.0) |liipp_3__ULTIMATE.start_main_#t~post2|) 0.0)) 0.0) (= (* motzkin_6316_6 (+ (* (- 1.0) |liipp_3__ULTIMATE.start_main_#t~post1|) 0.0)) 0.0) (= (* motzkin_6316_6 (+ (* (- 1.0) |liipp_3__ULTIMATE.start_main_#t~post4|) 0.0)) 0.0) (<= (* motzkin_6316_6 (+ (* (- 1.0) liipp_3_c) 0.0)) 0.0) (or (< 0.0 0.0) (> motzkin_6316_6 0.0))))
(declare-fun liipp_9_replace_0 () Real)
(declare-fun liipp_9_replace_1 () Real)
(declare-fun liipp_9_replace_2 () Real)
(declare-fun liipp_9_replace_3 () Real)
(declare-fun liipp_9_replace_4 () Real)
(declare-fun liipp_9_replace_5 () Real)
(declare-fun liipp_9_replace_6 () Real)
(declare-fun liipp_9_replace_7 () Real)
(declare-fun liipp_9_replace_8 () Real)
(declare-fun motzkin_6317_0 () Real)
(declare-fun motzkin_6317_1 () Real)
(declare-fun motzkin_6317_2 () Real)
(declare-fun motzkin_6317_3 () Real)
(declare-fun motzkin_6318_0 () Real)
(declare-fun motzkin_6318_1 () Real)
(declare-fun motzkin_6318_2 () Real)
(declare-fun motzkin_6318_3 () Real)
(assert (and (>= motzkin_6317_0 0.0) (>= motzkin_6317_1 0.0) (>= motzkin_6317_2 0.0) (>= motzkin_6317_3 0.0) (= (+ (* motzkin_6317_1 (+ (* (- 1.0) |liipp_4__ULTIMATE.start_main_#t~nondet0|) 0.0)) (* motzkin_6317_2 (+ (* 1.0 |liipp_2__ULTIMATE.start_main_#t~nondet0|) 0.0)) (* motzkin_6317_3 (+ (* 1.0 |liipp_3__ULTIMATE.start_main_#t~nondet0|) 0.0))) 0.0) (= (+ (* motzkin_6317_1 (+ (* (- 1.0) |liipp_4__ULTIMATE.start_main_#res|) 0.0)) (* motzkin_6317_2 (+ (* 1.0 |liipp_2__ULTIMATE.start_main_#res|) 0.0)) (* motzkin_6317_3 (+ (* 1.0 |liipp_3__ULTIMATE.start_main_#res|) 0.0))) 0.0) (= (+ (* motzkin_6317_1 (+ (* (- 1.0) |liipp_4__ULTIMATE.start_main_#t~post3|) 0.0)) (* motzkin_6317_2 (+ (* 1.0 |liipp_2__ULTIMATE.start_main_#t~post3|) 0.0)) (* motzkin_6317_3 (+ (* 1.0 |liipp_3__ULTIMATE.start_main_#t~post3|) 0.0))) 0.0) (= (+ (* motzkin_6317_1 (+ (* (- 1.0) |liipp_4__ULTIMATE.start_main_#t~post2|) 0.0)) (* motzkin_6317_2 (+ (* 1.0 |liipp_2__ULTIMATE.start_main_#t~post2|) 0.0)) (* motzkin_6317_3 (+ (* 1.0 |liipp_3__ULTIMATE.start_main_#t~post2|) 0.0))) 0.0) (= (+ (* motzkin_6317_1 (+ (* (- 1.0) |liipp_4__ULTIMATE.start_main_#t~post1|) 0.0)) (* motzkin_6317_2 (+ (* 1.0 |liipp_2__ULTIMATE.start_main_#t~post1|) 0.0)) (* motzkin_6317_3 (+ (* 1.0 |liipp_3__ULTIMATE.start_main_#t~post1|) 0.0))) 0.0) (= (+ (* motzkin_6317_1 (+ (* (- 1.0) liipp_4__ULTIMATE.start_main_~z~2) 0.0)) (* motzkin_6317_2 (+ (* 1.0 liipp_2__ULTIMATE.start_main_~z~2) 0.0)) (* motzkin_6317_3 (+ (* 1.0 liipp_3__ULTIMATE.start_main_~z~2) 0.0))) 0.0) (= (+ (* motzkin_6317_1 (+ (* (- 1.0) liipp_4__ULTIMATE.start_main_~y~2) 0.0)) (* motzkin_6317_2 (+ (* 1.0 liipp_2__ULTIMATE.start_main_~y~2) 0.0)) (* motzkin_6317_3 (+ (* 1.0 liipp_3__ULTIMATE.start_main_~y~2) 0.0))) 0.0) (= (+ (* motzkin_6317_1 (+ (* (- 1.0) liipp_4__ULTIMATE.start_main_~x~2) 0.0)) (* motzkin_6317_2 (+ (* 1.0 liipp_2__ULTIMATE.start_main_~x~2) 0.0)) (* motzkin_6317_3 (+ (* 1.0 liipp_3__ULTIMATE.start_main_~x~2) 0.0))) 0.0) (= (+ (* motzkin_6317_1 (+ (* (- 1.0) |liipp_4__ULTIMATE.start_main_#t~post4|) 0.0)) (* motzkin_6317_2 (+ (* 1.0 |liipp_2__ULTIMATE.start_main_#t~post4|) 0.0)) (* motzkin_6317_3 (+ (* 1.0 |liipp_3__ULTIMATE.start_main_#t~post4|) 0.0))) 0.0) (<= (+ (* motzkin_6317_1 (+ (* (- 1.0) liipp_4_c) 0.0)) (* motzkin_6317_2 (+ (* 1.0 liipp_2_c) 0.0)) (* motzkin_6317_3 (+ (* 1.0 liipp_3_c) 0.0))) 0.0) (or (< (+ (* motzkin_6317_1 (+ (* (- 1.0) liipp_4_c) 0.0)) (* motzkin_6317_3 (+ (* 1.0 liipp_3_c) 0.0))) 0.0) (> motzkin_6317_2 0.0)) (>= motzkin_6318_0 0.0) (>= motzkin_6318_1 0.0) (>= motzkin_6318_2 0.0) (>= motzkin_6318_3 0.0) (= (+ (* motzkin_6318_1 (+ (* (- 1.0) |liipp_5__ULTIMATE.start_main_#t~nondet0|) 0.0)) (* motzkin_6318_2 (+ (* 1.0 |liipp_2__ULTIMATE.start_main_#t~nondet0|) 0.0)) (* motzkin_6318_3 (+ (* 1.0 |liipp_3__ULTIMATE.start_main_#t~nondet0|) 0.0))) 0.0) (= (+ (* motzkin_6318_1 (+ (* (- 1.0) |liipp_5__ULTIMATE.start_main_#res|) 0.0)) (* motzkin_6318_2 (+ (* 1.0 |liipp_2__ULTIMATE.start_main_#res|) 0.0)) (* motzkin_6318_3 (+ (* 1.0 |liipp_3__ULTIMATE.start_main_#res|) 0.0))) 0.0) (= (+ (* motzkin_6318_1 (+ (* (- 1.0) |liipp_5__ULTIMATE.start_main_#t~post3|) 0.0)) (* motzkin_6318_2 (+ (* 1.0 |liipp_2__ULTIMATE.start_main_#t~post3|) 0.0)) (* motzkin_6318_3 (+ (* 1.0 |liipp_3__ULTIMATE.start_main_#t~post3|) 0.0))) 0.0) (= (+ (* motzkin_6318_1 (+ (* (- 1.0) |liipp_5__ULTIMATE.start_main_#t~post2|) 0.0)) (* motzkin_6318_2 (+ (* 1.0 |liipp_2__ULTIMATE.start_main_#t~post2|) 0.0)) (* motzkin_6318_3 (+ (* 1.0 |liipp_3__ULTIMATE.start_main_#t~post2|) 0.0))) 0.0) (= (+ (* motzkin_6318_1 (+ (* (- 1.0) |liipp_5__ULTIMATE.start_main_#t~post1|) 0.0)) (* motzkin_6318_2 (+ (* 1.0 |liipp_2__ULTIMATE.start_main_#t~post1|) 0.0)) (* motzkin_6318_3 (+ (* 1.0 |liipp_3__ULTIMATE.start_main_#t~post1|) 0.0))) 0.0) (= (+ (* motzkin_6318_1 (+ (* (- 1.0) liipp_5__ULTIMATE.start_main_~z~2) 0.0)) (* motzkin_6318_2 (+ (* 1.0 liipp_2__ULTIMATE.start_main_~z~2) 0.0)) (* motzkin_6318_3 (+ (* 1.0 liipp_3__ULTIMATE.start_main_~z~2) 0.0))) 0.0) (= (+ (* motzkin_6318_1 (+ (* (- 1.0) liipp_5__ULTIMATE.start_main_~y~2) 0.0)) (* motzkin_6318_2 (+ (* 1.0 liipp_2__ULTIMATE.start_main_~y~2) 0.0)) (* motzkin_6318_3 (+ (* 1.0 liipp_3__ULTIMATE.start_main_~y~2) 0.0))) 0.0) (= (+ (* motzkin_6318_1 (+ (* (- 1.0) liipp_5__ULTIMATE.start_main_~x~2) 0.0)) (* motzkin_6318_2 (+ (* 1.0 liipp_2__ULTIMATE.start_main_~x~2) 0.0)) (* motzkin_6318_3 (+ (* 1.0 liipp_3__ULTIMATE.start_main_~x~2) 0.0))) 0.0) (= (+ (* motzkin_6318_1 (+ (* (- 1.0) |liipp_5__ULTIMATE.start_main_#t~post4|) 0.0)) (* motzkin_6318_2 (+ (* 1.0 |liipp_2__ULTIMATE.start_main_#t~post4|) 0.0)) (* motzkin_6318_3 (+ (* 1.0 |liipp_3__ULTIMATE.start_main_#t~post4|) 0.0))) 0.0) (<= (+ (* motzkin_6318_1 (+ (* (- 1.0) liipp_5_c) 0.0)) (* motzkin_6318_2 (+ (* 1.0 liipp_2_c) 0.0)) (* motzkin_6318_3 (+ (* 1.0 liipp_3_c) 0.0))) 0.0) (or (< (* motzkin_6318_3 (+ (* 1.0 liipp_3_c) 0.0)) 0.0) (> (+ motzkin_6318_1 motzkin_6318_2) 0.0))))
(declare-fun liipp_10_replace_0 () Real)
(declare-fun liipp_10_replace_1 () Real)
(declare-fun liipp_10_replace_2 () Real)
(declare-fun liipp_10_replace_3 () Real)
(declare-fun liipp_10_replace_4 () Real)
(declare-fun liipp_10_replace_5 () Real)
(declare-fun liipp_10_replace_6 () Real)
(declare-fun liipp_10_replace_7 () Real)
(declare-fun motzkin_6319_0 () Real)
(declare-fun motzkin_6319_1 () Real)
(declare-fun motzkin_6319_2 () Real)
(declare-fun motzkin_6319_3 () Real)
(declare-fun motzkin_6320_0 () Real)
(declare-fun motzkin_6320_1 () Real)
(declare-fun motzkin_6320_2 () Real)
(declare-fun motzkin_6320_3 () Real)
(assert (and (>= motzkin_6319_0 0.0) (>= motzkin_6319_1 0.0) (>= motzkin_6319_2 0.0) (>= motzkin_6319_3 0.0) (= (+ motzkin_6319_0 (* motzkin_6319_1 (+ (* (- 1.0) liipp_0__ULTIMATE.start_main_~x~2) 0.0)) (* motzkin_6319_2 (+ (* 1.0 liipp_4__ULTIMATE.start_main_~x~2) 0.0)) (* motzkin_6319_3 (+ (* 1.0 liipp_5__ULTIMATE.start_main_~x~2) 0.0))) 0.0) (= (+ (* motzkin_6319_1 (+ (* (- 1.0) |liipp_0__ULTIMATE.start_main_#t~nondet0|) 0.0)) (* motzkin_6319_2 (+ (* 1.0 |liipp_4__ULTIMATE.start_main_#t~nondet0|) 0.0)) (* motzkin_6319_3 (+ (* 1.0 |liipp_5__ULTIMATE.start_main_#t~nondet0|) 0.0))) 0.0) (= (+ (* motzkin_6319_1 (+ (* (- 1.0) |liipp_0__ULTIMATE.start_main_#res|) 0.0)) (* motzkin_6319_2 (+ (* 1.0 |liipp_4__ULTIMATE.start_main_#res|) 0.0)) (* motzkin_6319_3 (+ (* 1.0 |liipp_5__ULTIMATE.start_main_#res|) 0.0))) 0.0) (= (+ (* motzkin_6319_1 (+ (* (- 1.0) |liipp_0__ULTIMATE.start_main_#t~post3|) 0.0)) (* motzkin_6319_2 (+ (* 1.0 |liipp_4__ULTIMATE.start_main_#t~post3|) 0.0)) (* motzkin_6319_3 (+ (* 1.0 |liipp_5__ULTIMATE.start_main_#t~post3|) 0.0))) 0.0) (= (+ (* motzkin_6319_1 (+ (* (- 1.0) |liipp_0__ULTIMATE.start_main_#t~post2|) 0.0)) (* motzkin_6319_2 (+ (* 1.0 |liipp_4__ULTIMATE.start_main_#t~post2|) 0.0)) (* motzkin_6319_3 (+ (* 1.0 |liipp_5__ULTIMATE.start_main_#t~post2|) 0.0))) 0.0) (= (+ (* motzkin_6319_1 (+ (* (- 1.0) |liipp_0__ULTIMATE.start_main_#t~post1|) 0.0)) (* motzkin_6319_2 (+ (* 1.0 |liipp_4__ULTIMATE.start_main_#t~post1|) 0.0)) (* motzkin_6319_3 (+ (* 1.0 |liipp_5__ULTIMATE.start_main_#t~post1|) 0.0))) 0.0) (= (+ (* motzkin_6319_1 (+ (* (- 1.0) liipp_0__ULTIMATE.start_main_~z~2) 0.0)) (* motzkin_6319_2 (+ (* 1.0 liipp_4__ULTIMATE.start_main_~z~2) 0.0)) (* motzkin_6319_3 (+ (* 1.0 liipp_5__ULTIMATE.start_main_~z~2) 0.0))) 0.0) (= (+ (* motzkin_6319_1 (+ (* (- 1.0) liipp_0__ULTIMATE.start_main_~y~2) 0.0)) (* motzkin_6319_2 (+ (* 1.0 liipp_4__ULTIMATE.start_main_~y~2) 0.0)) (* motzkin_6319_3 (+ (* 1.0 liipp_5__ULTIMATE.start_main_~y~2) 0.0))) 0.0) (= (+ (* motzkin_6319_1 (+ (* (- 1.0) |liipp_0__ULTIMATE.start_main_#t~post4|) 0.0)) (* motzkin_6319_2 (+ (* 1.0 |liipp_4__ULTIMATE.start_main_#t~post4|) 0.0)) (* motzkin_6319_3 (+ (* 1.0 |liipp_5__ULTIMATE.start_main_#t~post4|) 0.0))) 0.0) (<= (+ (* motzkin_6319_0 (- 100.0)) (* motzkin_6319_1 (+ (* (- 1.0) liipp_0_c) 0.0)) (* motzkin_6319_2 (+ (* 1.0 liipp_4_c) 0.0)) (* motzkin_6319_3 (+ (* 1.0 liipp_5_c) 0.0))) 0.0) (or (< (+ (* motzkin_6319_0 (- 100.0)) (* motzkin_6319_1 (+ (* (- 1.0) liipp_0_c) 0.0)) (* motzkin_6319_3 (+ (* 1.0 liipp_5_c) 0.0))) 0.0) (> motzkin_6319_2 0.0)) (>= motzkin_6320_0 0.0) (>= motzkin_6320_1 0.0) (>= motzkin_6320_2 0.0) (>= motzkin_6320_3 0.0) (= (+ motzkin_6320_0 (* motzkin_6320_1 (+ (* (- 1.0) liipp_1__ULTIMATE.start_main_~x~2) 0.0)) (* motzkin_6320_2 (+ (* 1.0 liipp_4__ULTIMATE.start_main_~x~2) 0.0)) (* motzkin_6320_3 (+ (* 1.0 liipp_5__ULTIMATE.start_main_~x~2) 0.0))) 0.0) (= (+ (* motzkin_6320_1 (+ (* (- 1.0) |liipp_1__ULTIMATE.start_main_#t~nondet0|) 0.0)) (* motzkin_6320_2 (+ (* 1.0 |liipp_4__ULTIMATE.start_main_#t~nondet0|) 0.0)) (* motzkin_6320_3 (+ (* 1.0 |liipp_5__ULTIMATE.start_main_#t~nondet0|) 0.0))) 0.0) (= (+ (* motzkin_6320_1 (+ (* (- 1.0) |liipp_1__ULTIMATE.start_main_#res|) 0.0)) (* motzkin_6320_2 (+ (* 1.0 |liipp_4__ULTIMATE.start_main_#res|) 0.0)) (* motzkin_6320_3 (+ (* 1.0 |liipp_5__ULTIMATE.start_main_#res|) 0.0))) 0.0) (= (+ (* motzkin_6320_1 (+ (* (- 1.0) |liipp_1__ULTIMATE.start_main_#t~post3|) 0.0)) (* motzkin_6320_2 (+ (* 1.0 |liipp_4__ULTIMATE.start_main_#t~post3|) 0.0)) (* motzkin_6320_3 (+ (* 1.0 |liipp_5__ULTIMATE.start_main_#t~post3|) 0.0))) 0.0) (= (+ (* motzkin_6320_1 (+ (* (- 1.0) |liipp_1__ULTIMATE.start_main_#t~post2|) 0.0)) (* motzkin_6320_2 (+ (* 1.0 |liipp_4__ULTIMATE.start_main_#t~post2|) 0.0)) (* motzkin_6320_3 (+ (* 1.0 |liipp_5__ULTIMATE.start_main_#t~post2|) 0.0))) 0.0) (= (+ (* motzkin_6320_1 (+ (* (- 1.0) |liipp_1__ULTIMATE.start_main_#t~post1|) 0.0)) (* motzkin_6320_2 (+ (* 1.0 |liipp_4__ULTIMATE.start_main_#t~post1|) 0.0)) (* motzkin_6320_3 (+ (* 1.0 |liipp_5__ULTIMATE.start_main_#t~post1|) 0.0))) 0.0) (= (+ (* motzkin_6320_1 (+ (* (- 1.0) liipp_1__ULTIMATE.start_main_~z~2) 0.0)) (* motzkin_6320_2 (+ (* 1.0 liipp_4__ULTIMATE.start_main_~z~2) 0.0)) (* motzkin_6320_3 (+ (* 1.0 liipp_5__ULTIMATE.start_main_~z~2) 0.0))) 0.0) (= (+ (* motzkin_6320_1 (+ (* (- 1.0) liipp_1__ULTIMATE.start_main_~y~2) 0.0)) (* motzkin_6320_2 (+ (* 1.0 liipp_4__ULTIMATE.start_main_~y~2) 0.0)) (* motzkin_6320_3 (+ (* 1.0 liipp_5__ULTIMATE.start_main_~y~2) 0.0))) 0.0) (= (+ (* motzkin_6320_1 (+ (* (- 1.0) |liipp_1__ULTIMATE.start_main_#t~post4|) 0.0)) (* motzkin_6320_2 (+ (* 1.0 |liipp_4__ULTIMATE.start_main_#t~post4|) 0.0)) (* motzkin_6320_3 (+ (* 1.0 |liipp_5__ULTIMATE.start_main_#t~post4|) 0.0))) 0.0) (<= (+ (* motzkin_6320_0 (- 100.0)) (* motzkin_6320_1 (+ (* (- 1.0) liipp_1_c) 0.0)) (* motzkin_6320_2 (+ (* 1.0 liipp_4_c) 0.0)) (* motzkin_6320_3 (+ (* 1.0 liipp_5_c) 0.0))) 0.0) (or (< (+ (* motzkin_6320_0 (- 100.0)) (* motzkin_6320_3 (+ (* 1.0 liipp_5_c) 0.0))) 0.0) (> (+ motzkin_6320_1 motzkin_6320_2) 0.0))))
(declare-fun liipp_11_replace_0 () Real)
(declare-fun liipp_11_replace_1 () Real)
(declare-fun liipp_11_replace_2 () Real)
(declare-fun liipp_11_replace_3 () Real)
(declare-fun liipp_11_replace_4 () Real)
(declare-fun liipp_11_replace_5 () Real)
(declare-fun liipp_11_replace_6 () Real)
(declare-fun motzkin_6321_0 () Real)
(declare-fun motzkin_6321_1 () Real)
(declare-fun motzkin_6321_2 () Real)
(declare-fun motzkin_6322_0 () Real)
(declare-fun motzkin_6322_1 () Real)
(declare-fun motzkin_6322_2 () Real)
(assert (and (>= motzkin_6321_0 0.0) (>= motzkin_6321_1 0.0) (>= motzkin_6321_2 0.0) (= (+ motzkin_6321_0 (* motzkin_6321_1 (+ (* 1.0 liipp_0__ULTIMATE.start_main_~z~2) 0.0)) (* motzkin_6321_2 (+ (* 1.0 liipp_1__ULTIMATE.start_main_~z~2) 0.0))) 0.0) (= (+ (* motzkin_6321_0 (- 1.0)) (* motzkin_6321_1 (+ (* 1.0 liipp_0__ULTIMATE.start_main_~x~2) 0.0)) (* motzkin_6321_2 (+ (* 1.0 liipp_1__ULTIMATE.start_main_~x~2) 0.0))) 0.0) (= (+ (* motzkin_6321_1 (+ (* 1.0 |liipp_0__ULTIMATE.start_main_#t~nondet0|) 0.0)) (* motzkin_6321_2 (+ (* 1.0 |liipp_1__ULTIMATE.start_main_#t~nondet0|) 0.0))) 0.0) (= (+ (* motzkin_6321_1 (+ (* 1.0 |liipp_0__ULTIMATE.start_main_#res|) 0.0)) (* motzkin_6321_2 (+ (* 1.0 |liipp_1__ULTIMATE.start_main_#res|) 0.0))) 0.0) (= (+ (* motzkin_6321_1 (+ (* 1.0 |liipp_0__ULTIMATE.start_main_#t~post3|) 0.0)) (* motzkin_6321_2 (+ (* 1.0 |liipp_1__ULTIMATE.start_main_#t~post3|) 0.0))) 0.0) (= (+ (* motzkin_6321_1 (+ (* 1.0 |liipp_0__ULTIMATE.start_main_#t~post2|) 0.0)) (* motzkin_6321_2 (+ (* 1.0 |liipp_1__ULTIMATE.start_main_#t~post2|) 0.0))) 0.0) (= (+ (* motzkin_6321_1 (+ (* 1.0 |liipp_0__ULTIMATE.start_main_#t~post1|) 0.0)) (* motzkin_6321_2 (+ (* 1.0 |liipp_1__ULTIMATE.start_main_#t~post1|) 0.0))) 0.0) (= (+ (* motzkin_6321_1 (+ (* 1.0 liipp_0__ULTIMATE.start_main_~y~2) 0.0)) (* motzkin_6321_2 (+ (* 1.0 liipp_1__ULTIMATE.start_main_~y~2) 0.0))) 0.0) (= (+ (* motzkin_6321_1 (+ (* 1.0 |liipp_0__ULTIMATE.start_main_#t~post4|) 0.0)) (* motzkin_6321_2 (+ (* 1.0 |liipp_1__ULTIMATE.start_main_#t~post4|) 0.0))) 0.0) (<= (+ (* motzkin_6321_0 (- 1.0)) (* motzkin_6321_1 (+ (* 1.0 liipp_0_c) 0.0)) (* motzkin_6321_2 (+ (* 1.0 liipp_1_c) 0.0))) 0.0) (or (< (+ (* motzkin_6321_0 (- 1.0)) (* motzkin_6321_2 (+ (* 1.0 liipp_1_c) 0.0))) 0.0) (> motzkin_6321_1 0.0)) (>= motzkin_6322_0 0.0) (>= motzkin_6322_1 0.0) (>= motzkin_6322_2 0.0) (= (+ (* motzkin_6322_0 (- 1.0)) (* motzkin_6322_1 (+ (* 1.0 liipp_0__ULTIMATE.start_main_~z~2) 0.0)) (* motzkin_6322_2 (+ (* 1.0 liipp_1__ULTIMATE.start_main_~z~2) 0.0))) 0.0) (= (+ motzkin_6322_0 (* motzkin_6322_1 (+ (* 1.0 liipp_0__ULTIMATE.start_main_~x~2) 0.0)) (* motzkin_6322_2 (+ (* 1.0 liipp_1__ULTIMATE.start_main_~x~2) 0.0))) 0.0) (= (+ (* motzkin_6322_1 (+ (* 1.0 |liipp_0__ULTIMATE.start_main_#t~nondet0|) 0.0)) (* motzkin_6322_2 (+ (* 1.0 |liipp_1__ULTIMATE.start_main_#t~nondet0|) 0.0))) 0.0) (= (+ (* motzkin_6322_1 (+ (* 1.0 |liipp_0__ULTIMATE.start_main_#res|) 0.0)) (* motzkin_6322_2 (+ (* 1.0 |liipp_1__ULTIMATE.start_main_#res|) 0.0))) 0.0) (= (+ (* motzkin_6322_1 (+ (* 1.0 |liipp_0__ULTIMATE.start_main_#t~post3|) 0.0)) (* motzkin_6322_2 (+ (* 1.0 |liipp_1__ULTIMATE.start_main_#t~post3|) 0.0))) 0.0) (= (+ (* motzkin_6322_1 (+ (* 1.0 |liipp_0__ULTIMATE.start_main_#t~post2|) 0.0)) (* motzkin_6322_2 (+ (* 1.0 |liipp_1__ULTIMATE.start_main_#t~post2|) 0.0))) 0.0) (= (+ (* motzkin_6322_1 (+ (* 1.0 |liipp_0__ULTIMATE.start_main_#t~post1|) 0.0)) (* motzkin_6322_2 (+ (* 1.0 |liipp_1__ULTIMATE.start_main_#t~post1|) 0.0))) 0.0) (= (+ (* motzkin_6322_1 (+ (* 1.0 liipp_0__ULTIMATE.start_main_~y~2) 0.0)) (* motzkin_6322_2 (+ (* 1.0 liipp_1__ULTIMATE.start_main_~y~2) 0.0))) 0.0) (= (+ (* motzkin_6322_1 (+ (* 1.0 |liipp_0__ULTIMATE.start_main_#t~post4|) 0.0)) (* motzkin_6322_2 (+ (* 1.0 |liipp_1__ULTIMATE.start_main_#t~post4|) 0.0))) 0.0) (<= (+ (* motzkin_6322_0 (- 1.0)) (* motzkin_6322_1 (+ (* 1.0 liipp_0_c) 0.0)) (* motzkin_6322_2 (+ (* 1.0 liipp_1_c) 0.0))) 0.0) (or (< (+ (* motzkin_6322_0 (- 1.0)) (* motzkin_6322_2 (+ (* 1.0 liipp_1_c) 0.0))) 0.0) (> motzkin_6322_1 0.0))))
(assert (= |liipp_1__ULTIMATE.start_main_#t~post1| 0))
(assert (= |liipp_1__ULTIMATE.start_main_#t~post2| 0))
(assert (= liipp_3__ULTIMATE.start_main_~z~2 0))
(assert (= liipp_3__ULTIMATE.start_main_~x~2 0))
(assert (= |liipp_4__ULTIMATE.start_main_#res| 0))
(assert (= |liipp_0__ULTIMATE.start_main_#t~nondet0| 0))
(assert (= |liipp_3__ULTIMATE.start_main_#t~nondet0| 0))
(assert (= liipp_2__ULTIMATE.start_main_~z~2 0))
(assert (= |liipp_4__ULTIMATE.start_main_#t~post1| 0))
(assert (= |liipp_4__ULTIMATE.start_main_#t~post3| 0))
(assert (= |liipp_4__ULTIMATE.start_main_#t~post2| 0))
(assert (= |liipp_4__ULTIMATE.start_main_#t~post4| 0))
(assert (= |liipp_1__ULTIMATE.start_main_#t~post3| 0))
(assert (= |liipp_5__ULTIMATE.start_main_#res| 0))
(assert (= |liipp_1__ULTIMATE.start_main_#t~post4| 0))
(assert (= liipp_5__ULTIMATE.start_main_~z~2 0))
(assert (= liipp_1__ULTIMATE.start_main_~y~2 0))
(assert (= liipp_5__ULTIMATE.start_main_~x~2 0))
(assert (= |liipp_0__ULTIMATE.start_main_#t~post2| 0))
(assert (= |liipp_0__ULTIMATE.start_main_#t~post3| 0))
(assert (= |liipp_1__ULTIMATE.start_main_#t~nondet0| 0))
(assert (= |liipp_0__ULTIMATE.start_main_#t~post1| 0))
(assert (= |liipp_3__ULTIMATE.start_main_#t~post1| 0))
(assert (= |liipp_3__ULTIMATE.start_main_#t~post2| 0))
(assert (= liipp_0__ULTIMATE.start_main_~y~2 0))
(assert (= |liipp_3__ULTIMATE.start_main_#t~post3| 0))
(assert (= |liipp_3__ULTIMATE.start_main_#t~post4| 0))
(assert (= liipp_4__ULTIMATE.start_main_~z~2 0))
(assert (= |liipp_0__ULTIMATE.start_main_#t~post4| 0))
(assert (= liipp_3_c 0))
(assert (= |liipp_4__ULTIMATE.start_main_#t~nondet0| 0))
(assert (= |liipp_0__ULTIMATE.start_main_#res| 0))
(assert (= liipp_3__ULTIMATE.start_main_~y~2 0))
(assert (= |liipp_5__ULTIMATE.start_main_#t~nondet0| 0))
(assert (= |liipp_2__ULTIMATE.start_main_#t~nondet0| 0))
(assert (= |liipp_1__ULTIMATE.start_main_#res| 0))
(assert (= liipp_2__ULTIMATE.start_main_~y~2 0))
(assert (= |liipp_5__ULTIMATE.start_main_#t~post1| 0))
(assert (= liipp_1__ULTIMATE.start_main_~z~2 0))
(assert (= |liipp_5__ULTIMATE.start_main_#t~post2| 0))
(assert (= liipp_5__ULTIMATE.start_main_~y~2 0))
(assert (= liipp_1__ULTIMATE.start_main_~x~2 0))
(assert (= |liipp_2__ULTIMATE.start_main_#t~post4| 0))
(assert (= |liipp_2__ULTIMATE.start_main_#t~post3| 0))
(assert (= |liipp_5__ULTIMATE.start_main_#t~post3| 0))
(assert (= |liipp_2__ULTIMATE.start_main_#t~post2| 0))
(assert (= |liipp_5__ULTIMATE.start_main_#t~post4| 0))
(assert (= |liipp_2__ULTIMATE.start_main_#res| 0))
(assert (= liipp_4__ULTIMATE.start_main_~y~2 0))
(assert (= liipp_0__ULTIMATE.start_main_~z~2 0))
(assert (= |liipp_2__ULTIMATE.start_main_#t~post1| 0))
(assert (= |liipp_3__ULTIMATE.start_main_#res| 0))
(assert (= liipp_0__ULTIMATE.start_main_~x~2 0))
(assert (or (= liipp_2__ULTIMATE.start_main_~x~2 0) (= liipp_2_c 0) (= liipp_5_c 0) (= liipp_1_c 0)))
(assert (or (= liipp_4__ULTIMATE.start_main_~x~2 0) (= liipp_0_c 0) (= liipp_5_c 0) (= liipp_2_c 0)))
(assert (or (= liipp_2_c 0) (= liipp_4__ULTIMATE.start_main_~x~2 0) (= liipp_5_c 0) (= liipp_0_c 0)))
(assert (or (= liipp_0_c 0) (= liipp_4_c 0) (= liipp_2__ULTIMATE.start_main_~x~2 0) (= liipp_4__ULTIMATE.start_main_~x~2 0)))
(assert (or (= liipp_5_c 0) (= liipp_4__ULTIMATE.start_main_~x~2 0) (= liipp_2__ULTIMATE.start_main_~x~2 0) (= liipp_1_c 0)))
(assert (or (= liipp_4__ULTIMATE.start_main_~x~2 0) (= liipp_2__ULTIMATE.start_main_~x~2 0) (= liipp_4_c 0) (= liipp_1_c 0)))
(assert (or (= liipp_4_c 0) (= liipp_1_c 0) (= liipp_2__ULTIMATE.start_main_~x~2 0) (= liipp_0_c 0)))
(assert (or (= liipp_0_c 0) (= liipp_2_c 0) (= liipp_1_c 0) (= liipp_4__ULTIMATE.start_main_~x~2 0)))
(assert (or (= liipp_5_c 0) (= liipp_2_c 0) (= liipp_0_c 0) (= liipp_2__ULTIMATE.start_main_~x~2 0)))
(assert (or (= liipp_2__ULTIMATE.start_main_~x~2 0) (= liipp_2_c 0) (= liipp_5_c 0) (= liipp_0_c 0)))
(check-sat)
(exit)
