z3_origin/InVarSynth_OrderDependentEquality.c_Iteration2_0.txt
sat
(:elim-unconstrained  9
 :max-memory          18.64
 :memory              18.45
 :nlsat-arith-var     24
 :nlsat-atoms         69
 :nlsat-bool-var      3
 :nlsat-clauses       46
 :nlsat-conflicts     57
 :nlsat-decisions     19
 :nlsat-propagations  372
 :nlsat-stages        164
 :num-allocs          80270
 :rlimit-count        15329
 :solve-eqs-elim-vars 72
 :solve-eqs-steps     102
 :time                0.01
 :total-time          0.02)
